asp/input/in_60_30_7_2.lp
#const n = 60.
#const k = 30.
#const h = 7.
tile(1,6,12).
tile(2,29,17).
tile(3,28,7).
tile(4,2,3).
tile(5,3,23).
tile(6,14,24).
tile(7,15,18).
tile(8,13,13).
tile(9,6,21).
tile(10,27,2).
tile(11,8,26).
tile(12,21,11).
tile(13,19,19).
tile(14,2,10).
tile(15,30,28).
tile(16,11,19).
tile(17,7,22).
tile(18,18,12).
tile(19,1,12).
tile(20,4,30).
tile(21,25,23).
tile(22,10,30).
tile(23,20,1).
tile(24,11,2).
tile(25,14,24).
tile(26,4,13).
tile(27,8,27).
tile(28,3,12).
tile(29,13,2).
tile(30,16,17).
tile(31,27,8).
tile(32,19,9).
tile(33,20,1).
tile(34,17,11).
tile(35,7,28).
tile(36,8,27).
tile(37,7,9).
tile(38,9,25).
tile(39,22,6).
tile(40,4,8).
tile(41,18,2).
tile(42,7,26).
tile(43,11,24).
tile(44,19,19).
tile(45,17,30).
tile(46,6,14).
tile(47,2,1).
tile(48,18,28).
tile(49,7,5).
tile(50,25,5).
tile(51,10,12).
tile(52,21,8).
tile(53,28,30).
tile(54,28,24).
tile(55,22,20).
tile(56,2,2).
tile(57,29,21).
tile(58,8,25).
tile(59,25,2).
tile(60,27,9).
