instances/in_60_30_7_2.dzn
n = 60;
k = 30;
h = 7;
tiles = array2d(1..n, 1..2,
[ 6,12
, 29,17
, 28,7
, 2,3
, 3,23
, 14,24
, 15,18
, 13,13
, 6,21
, 27,2
, 8,26
, 21,11
, 19,19
, 2,10
, 30,28
, 11,19
, 7,22
, 18,12
, 1,12
, 4,30
, 25,23
, 10,30
, 20,1
, 11,2
, 14,24
, 4,13
, 8,27
, 3,12
, 13,2
, 16,17
, 27,8
, 19,9
, 20,1
, 17,11
, 7,28
, 8,27
, 7,9
, 9,25
, 22,6
, 4,8
, 18,2
, 7,26
, 11,24
, 19,19
, 17,30
, 6,14
, 2,1
, 18,28
, 7,5
, 25,5
, 10,12
, 21,8
, 28,30
, 28,24
, 22,20
, 2,2
, 29,21
, 8,25
, 25,2
, 27,9
]);